objective value:                                   -3
t_n_1                                               1 	(obj:-1)
t_n_1234                                            1 	(obj:-1)
t_n_1307                                            1 	(obj:-1)
